Sourcefiles/src/toetse/vlakteKYA.lp
minimize
X,0501,SRX,A - X,0501,CWN,V + 
X,0501,SRX,V - X,0501,SRX,A + 
X,0501,MLD,A - X,0501,SRX,V + 
X,0501,MLD,V - X,0501,MLD,A + 
X,0501,PND,A - X,0501,MLD,V + 
X,0501,PND,V - X,0501,PND,A + 
X,0501,HEH,A - X,0501,PND,V + 
X,0502,HEH,V - X,0501,HEH,A + 
X,0502,PND,A - X,0502,HEH,V + 
X,0502,PND,V - X,0502,PND,A + 
X,0502,MLD,A - X,0502,PND,V + 
X,0502,MLD,V - X,0502,MLD,A + 
X,0502,SRX,A - X,0502,MLD,V + 
X,0502,SRX,V - X,0502,SRX,A + 
X,0502,CWN,A - X,0502,SRX,V + 
X,0503,CWN,V - X,0501,CWN,V + 
X,0503,SRX,A - X,0503,CWN,V + 
X,0503,SRX,V - X,0503,SRX,A + 
X,0503,MLD,A - X,0503,SRX,V + 
X,0503,MLD,V - X,0503,MLD,A + 
X,0503,PND,A - X,0503,MLD,V + 
X,0503,PND,V - X,0503,PND,A + 
X,0503,HEH,A - X,0503,PND,V + 
X,0504,HEH,V - X,0503,HEH,A + 
X,0504,PND,A - X,0504,HEH,V + 
X,0504,PND,V - X,0504,PND,A + 
X,0504,MLD,A - X,0504,PND,V + 
X,0504,MLD,V - X,0504,MLD,A + 
X,0504,SRX,A - X,0504,MLD,V + 
X,0504,SRX,V - X,0504,SRX,A + 
X,0504,CWN,A - X,0504,SRX,V + 
X,0505,CWN,V - X,0503,CWN,V + 
X,0505,SRX,A - X,0505,CWN,V + 
X,0505,SRX,V - X,0505,SRX,A + 
X,0505,MLD,A - X,0505,SRX,V + 
X,0505,MLD,V - X,0505,MLD,A + 
X,0505,PND,A - X,0505,MLD,V + 
X,0505,PND,V - X,0505,PND,A + 
X,0505,HEH,A - X,0505,PND,V + 
X,0506,HEH,V - X,0505,HEH,A + 
X,0506,PND,A - X,0506,HEH,V + 
X,0506,PND,V - X,0506,PND,A + 
X,0506,MLD,A - X,0506,PND,V + 
X,0506,MLD,V - X,0506,MLD,A + 
X,0506,SRX,A - X,0506,MLD,V + 
X,0506,SRX,V - X,0506,SRX,A + 
X,0506,CWN,A - X,0506,SRX,V + 
X,9401,MTX,A - X,9401,CWN,V + 
X,9401,MTX,V - X,9401,MTX,A + 
X,9401,BTL,A - X,9401,MTX,V + 
X,9401,BTL,V - X,9401,BTL,A + 
X,9401,KYA,A - X,9401,BTL,V + 
X,9402,KYA,V - X,9401,KYA,A + 
X,9402,BTL,A - X,9402,KYA,V + 
X,9402,BTL,V - X,9402,BTL,A + 
X,9402,MTX,A - X,9402,BTL,V + 
X,9402,MTX,V - X,9402,MTX,A + 
X,9402,CWN,A - X,9402,MTX,V + 
X,9903,CWN,V - X,9402,CWN,A + 
X,9903,MTX,A - X,9903,CWN,V + 
X,9903,MTX,V - X,9903,MTX,A + 
X,9903,BTL,A - X,9903,MTX,V + 
X,9903,BTL,V - X,9903,BTL,A + 
X,9903,CHN,A - X,9903,BTL,V + 
X,9904,CHN,V - X,9903,CHN,A + 
X,9904,BTL,A - X,9904,CHN,V + 
X,9904,BTL,V - X,9904,BTL,A + 
X,9904,MTX,A - X,9904,BTL,V + 
X,9904,MTX,V - X,9904,MTX,A + 
X,9904,CWN,A - X,9904,MTX,V + 
X,9903,CWN,V - X,9401,CWN,V + 
X,9405,MTX,A - X,9405,CWN,V + 
X,9405,MTX,V - X,9405,MTX,A + 
X,9405,BTL,A - X,9405,MTX,V + 
X,9405,BTL,V - X,9405,BTL,A + 
X,9405,KYA,A - X,9405,BTL,V + 
X,9406,KYA,V - X,9406,KYA,A + 
X,9406,BTL,A - X,9406,KYA,V + 
X,9406,BTL,V - X,9406,BTL,A + 
X,9406,MTX,A - X,9406,BTL,V + 
X,9406,MTX,V - X,9406,MTX,A + 
X,9406,CWN,A - X,9406,MTX,V + 
X,9907,CWN,V - X,9406,CWN,A + 
X,9907,MTX,A - X,9907,CWN,V + 
X,9907,MTX,V - X,9907,MTX,A + 
X,9907,BTL,A - X,9907,MTX,V + 
X,9907,BTL,V - X,9907,BTL,A + 
X,9907,CHN,A - X,9907,BTL,V + 
X,9908,CHN,V - X,9907,CHN,A + 
X,9908,BTL,A - X,9908,CHN,V + 
X,9908,BTL,V - X,9908,BTL,A + 
X,9908,MTX,A - X,9908,BTL,V + 
X,9908,MTX,V - X,9908,MTX,A + 
X,9908,CWN,A - X,9908,MTX,V + 
X,9405,CWN,V - X,9903,CWN,V + 
X,9907,CWN,V - X,9405,CWN,V 

subject to
X,0501,SRX,A - X,0501,CWN,V + 60 p,0501,SRX,A >= 6
X,0501,SRX,A - X,0501,CWN,V + 60 p,0501,SRX,A <= 6
X,0501,SRX,V - X,0501,SRX,A + 60 p,0501,SRX,V >= 1
X,0501,SRX,V - X,0501,SRX,A + 60 p,0501,SRX,V <= 1
X,0501,MLD,A - X,0501,SRX,V + 60 p,0501,MLD,A >= 4
X,0501,MLD,A - X,0501,SRX,V + 60 p,0501,MLD,A <= 4
X,0501,MLD,V - X,0501,MLD,A + 60 p,0501,MLD,V >= 1
X,0501,MLD,V - X,0501,MLD,A + 60 p,0501,MLD,V <= 1
X,0501,PND,A - X,0501,MLD,V + 60 p,0501,PND,A >= 5
X,0501,PND,A - X,0501,MLD,V + 60 p,0501,PND,A <= 5
X,0501,PND,V - X,0501,PND,A + 60 p,0501,PND,V >= 1
X,0501,PND,V - X,0501,PND,A + 60 p,0501,PND,V <= 1
X,0501,HEH,A - X,0501,PND,V + 60 p,0501,HEH,A >= 22
X,0501,HEH,A - X,0501,PND,V + 60 p,0501,HEH,A <= 22
X,0502,HEH,V - X,0501,HEH,A + 60 p,0502,HEH,V >= 9
X,0502,HEH,V - X,0501,HEH,A + 60 p,0502,HEH,V <= 9
X,0502,PND,A - X,0502,HEH,V + 60 p,0502,PND,A >= 21
X,0502,PND,A - X,0502,HEH,V + 60 p,0502,PND,A <= 21
X,0502,PND,V - X,0502,PND,A + 60 p,0502,PND,V >= 1
X,0502,PND,V - X,0502,PND,A + 60 p,0502,PND,V <= 1
X,0502,MLD,A - X,0502,PND,V + 60 p,0502,MLD,A >= 5
X,0502,MLD,A - X,0502,PND,V + 60 p,0502,MLD,A <= 5
X,0502,MLD,V - X,0502,MLD,A + 60 p,0502,MLD,V >= 1
X,0502,MLD,V - X,0502,MLD,A + 60 p,0502,MLD,V <= 1
X,0502,SRX,A - X,0502,MLD,V + 60 p,0502,SRX,A >= 4
X,0502,SRX,A - X,0502,MLD,V + 60 p,0502,SRX,A <= 4
X,0502,SRX,V - X,0502,SRX,A + 60 p,0502,SRX,V >= 1
X,0502,SRX,V - X,0502,SRX,A + 60 p,0502,SRX,V <= 1
X,0502,CWN,A - X,0502,SRX,V + 60 p,0502,CWN,A >= 6
X,0502,CWN,A - X,0502,SRX,V + 60 p,0502,CWN,A <= 6
X,0503,CWN,V - X,0501,CWN,V + 60 p,0503,CWN,V >= 20
X,0503,CWN,V - X,0501,CWN,V + 60 p,0503,CWN,V <= 20
X,0503,SRX,A - X,0503,CWN,V + 60 p,0503,SRX,A >= 6
X,0503,SRX,A - X,0503,CWN,V + 60 p,0503,SRX,A <= 6
X,0503,SRX,V - X,0503,SRX,A + 60 p,0503,SRX,V >= 1
X,0503,SRX,V - X,0503,SRX,A + 60 p,0503,SRX,V <= 1
X,0503,MLD,A - X,0503,SRX,V + 60 p,0503,MLD,A >= 4
X,0503,MLD,A - X,0503,SRX,V + 60 p,0503,MLD,A <= 4
X,0503,MLD,V - X,0503,MLD,A + 60 p,0503,MLD,V >= 1
X,0503,MLD,V - X,0503,MLD,A + 60 p,0503,MLD,V <= 1
X,0503,PND,A - X,0503,MLD,V + 60 p,0503,PND,A >= 5
X,0503,PND,A - X,0503,MLD,V + 60 p,0503,PND,A <= 5
X,0503,PND,V - X,0503,PND,A + 60 p,0503,PND,V >= 1
X,0503,PND,V - X,0503,PND,A + 60 p,0503,PND,V <= 1
X,0503,HEH,A - X,0503,PND,V + 60 p,0503,HEH,A >= 22
X,0503,HEH,A - X,0503,PND,V + 60 p,0503,HEH,A <= 22
X,0504,HEH,V - X,0503,HEH,A + 60 p,0504,HEH,V >= 9
X,0504,HEH,V - X,0503,HEH,A + 60 p,0504,HEH,V <= 9
X,0504,PND,A - X,0504,HEH,V + 60 p,0504,PND,A >= 21
X,0504,PND,A - X,0504,HEH,V + 60 p,0504,PND,A <= 21
X,0504,PND,V - X,0504,PND,A + 60 p,0504,PND,V >= 1
X,0504,PND,V - X,0504,PND,A + 60 p,0504,PND,V <= 1
X,0504,MLD,A - X,0504,PND,V + 60 p,0504,MLD,A >= 5
X,0504,MLD,A - X,0504,PND,V + 60 p,0504,MLD,A <= 5
X,0504,MLD,V - X,0504,MLD,A + 60 p,0504,MLD,V >= 1
X,0504,MLD,V - X,0504,MLD,A + 60 p,0504,MLD,V <= 1
X,0504,SRX,A - X,0504,MLD,V + 60 p,0504,SRX,A >= 4
X,0504,SRX,A - X,0504,MLD,V + 60 p,0504,SRX,A <= 4
X,0504,SRX,V - X,0504,SRX,A + 60 p,0504,SRX,V >= 1
X,0504,SRX,V - X,0504,SRX,A + 60 p,0504,SRX,V <= 1
X,0504,CWN,A - X,0504,SRX,V + 60 p,0504,CWN,A >= 6
X,0504,CWN,A - X,0504,SRX,V + 60 p,0504,CWN,A <= 6
X,0505,CWN,V - X,0503,CWN,V + 60 p,0505,CWN,V >= 20
X,0505,CWN,V - X,0503,CWN,V + 60 p,0505,CWN,V <= 20
X,0505,SRX,A - X,0505,CWN,V + 60 p,0505,SRX,A >= 6
X,0505,SRX,A - X,0505,CWN,V + 60 p,0505,SRX,A <= 6
X,0505,SRX,V - X,0505,SRX,A + 60 p,0505,SRX,V >= 1
X,0505,SRX,V - X,0505,SRX,A + 60 p,0505,SRX,V <= 1
X,0505,MLD,A - X,0505,SRX,V + 60 p,0505,MLD,A >= 4
X,0505,MLD,A - X,0505,SRX,V + 60 p,0505,MLD,A <= 4
X,0505,MLD,V - X,0505,MLD,A + 60 p,0505,MLD,V >= 1
X,0505,MLD,V - X,0505,MLD,A + 60 p,0505,MLD,V <= 1
X,0505,PND,A - X,0505,MLD,V + 60 p,0505,PND,A >= 5
X,0505,PND,A - X,0505,MLD,V + 60 p,0505,PND,A <= 5
X,0505,PND,V - X,0505,PND,A + 60 p,0505,PND,V >= 1
X,0505,PND,V - X,0505,PND,A + 60 p,0505,PND,V <= 1
X,0505,HEH,A - X,0505,PND,V + 60 p,0505,HEH,A >= 22
X,0505,HEH,A - X,0505,PND,V + 60 p,0505,HEH,A <= 22
X,0506,HEH,V - X,0505,HEH,A + 60 p,0506,HEH,V >= 9
X,0506,HEH,V - X,0505,HEH,A + 60 p,0506,HEH,V <= 9
X,0506,PND,A - X,0506,HEH,V + 60 p,0506,PND,A >= 21
X,0506,PND,A - X,0506,HEH,V + 60 p,0506,PND,A <= 21
X,0506,PND,V - X,0506,PND,A + 60 p,0506,PND,V >= 1
X,0506,PND,V - X,0506,PND,A + 60 p,0506,PND,V <= 1
X,0506,MLD,A - X,0506,PND,V + 60 p,0506,MLD,A >= 5
X,0506,MLD,A - X,0506,PND,V + 60 p,0506,MLD,A <= 5
X,0506,MLD,V - X,0506,MLD,A + 60 p,0506,MLD,V >= 1
X,0506,MLD,V - X,0506,MLD,A + 60 p,0506,MLD,V <= 1
X,0506,SRX,A - X,0506,MLD,V + 60 p,0506,SRX,A >= 4
X,0506,SRX,A - X,0506,MLD,V + 60 p,0506,SRX,A <= 4
X,0506,SRX,V - X,0506,SRX,A + 60 p,0506,SRX,V >= 1
X,0506,SRX,V - X,0506,SRX,A + 60 p,0506,SRX,V <= 1
X,0506,CWN,A - X,0506,SRX,V + 60 p,0506,CWN,A >= 6
X,0506,CWN,A - X,0506,SRX,V + 60 p,0506,CWN,A <= 6
X,9401,MTX,A - X,9401,CWN,V + 60 p,9401,MTX,A >= 15
X,9401,MTX,A - X,9401,CWN,V + 60 p,9401,MTX,A <= 15
X,9401,MTX,V - X,9401,MTX,A + 60 p,9401,MTX,V >= 1
X,9401,MTX,V - X,9401,MTX,A + 60 p,9401,MTX,V <= 1
X,9401,BTL,A - X,9401,MTX,V + 60 p,9401,BTL,A >= 8
X,9401,BTL,A - X,9401,MTX,V + 60 p,9401,BTL,A <= 8
X,9401,BTL,V - X,9401,BTL,A + 60 p,9401,BTL,V >= 1
X,9401,BTL,V - X,9401,BTL,A + 60 p,9401,BTL,V <= 1
X,9401,KYA,A - X,9401,BTL,V + 60 p,9401,KYA,A >= 32
X,9401,KYA,A - X,9401,BTL,V + 60 p,9401,KYA,A <= 32
X,9402,KYA,V - X,9401,KYA,A + 60 p,9402,KYA,V >= 10
X,9402,KYA,V - X,9401,KYA,A + 60 p,9402,KYA,V <= 10
X,9402,BTL,A - X,9402,KYA,V + 60 p,9402,BTL,A >= 31
X,9402,BTL,A - X,9402,KYA,V + 60 p,9402,BTL,A <= 31
X,9402,BTL,V - X,9402,BTL,A + 60 p,9402,BTL,V >= 1
X,9402,BTL,V - X,9402,BTL,A + 60 p,9402,BTL,V <= 1
X,9402,MTX,A - X,9402,BTL,V + 60 p,9402,MTX,A >= 8
X,9402,MTX,A - X,9402,BTL,V + 60 p,9402,MTX,A <= 8
X,9402,MTX,V - X,9402,MTX,A + 60 p,9402,MTX,V >= 1
X,9402,MTX,V - X,9402,MTX,A + 60 p,9402,MTX,V <= 1
X,9402,CWN,A - X,9402,MTX,V + 60 p,9402,CWN,A >= 14
X,9402,CWN,A - X,9402,MTX,V + 60 p,9402,CWN,A <= 14
X,9903,CWN,V - X,9402,CWN,A + 60 p,9903,CWN,V >= 13
X,9903,CWN,V - X,9402,CWN,A + 60 p,9903,CWN,V <= 13
X,9903,MTX,A - X,9903,CWN,V + 60 p,9903,MTX,A >= 15
X,9903,MTX,A - X,9903,CWN,V + 60 p,9903,MTX,A <= 15
X,9903,MTX,V - X,9903,MTX,A + 60 p,9903,MTX,V >= 1
X,9903,MTX,V - X,9903,MTX,A + 60 p,9903,MTX,V <= 1
X,9903,BTL,A - X,9903,MTX,V + 60 p,9903,BTL,A >= 8
X,9903,BTL,A - X,9903,MTX,V + 60 p,9903,BTL,A <= 8
X,9903,BTL,V - X,9903,BTL,A + 60 p,9903,BTL,V >= 1
X,9903,BTL,V - X,9903,BTL,A + 60 p,9903,BTL,V <= 1
X,9903,CHN,A - X,9903,BTL,V + 60 p,9903,CHN,A >= 42
X,9903,CHN,A - X,9903,BTL,V + 60 p,9903,CHN,A <= 42
X,9904,CHN,V - X,9903,CHN,A + 60 p,9904,CHN,V >= 20
X,9904,CHN,V - X,9903,CHN,A + 60 p,9904,CHN,V <= 20
X,9904,BTL,A - X,9904,CHN,V + 60 p,9904,BTL,A >= 41
X,9904,BTL,A - X,9904,CHN,V + 60 p,9904,BTL,A <= 41
X,9904,BTL,V - X,9904,BTL,A + 60 p,9904,BTL,V >= 1
X,9904,BTL,V - X,9904,BTL,A + 60 p,9904,BTL,V <= 1
X,9904,MTX,A - X,9904,BTL,V + 60 p,9904,MTX,A >= 8
X,9904,MTX,A - X,9904,BTL,V + 60 p,9904,MTX,A <= 8
X,9904,MTX,V - X,9904,MTX,A + 60 p,9904,MTX,V >= 1
X,9904,MTX,V - X,9904,MTX,A + 60 p,9904,MTX,V <= 1
X,9904,CWN,A - X,9904,MTX,V + 60 p,9904,CWN,A >= 14
X,9904,CWN,A - X,9904,MTX,V + 60 p,9904,CWN,A <= 14
X,9903,CWN,V - X,9401,CWN,V + 60 p,9903,CWN,V >= 15
X,9903,CWN,V - X,9401,CWN,V + 60 p,9903,CWN,V <= 15
X,9405,MTX,A - X,9405,CWN,V + 60 p,9405,MTX,A >= 15
X,9405,MTX,A - X,9405,CWN,V + 60 p,9405,MTX,A <= 15
X,9405,MTX,V - X,9405,MTX,A + 60 p,9405,MTX,V >= 1
X,9405,MTX,V - X,9405,MTX,A + 60 p,9405,MTX,V <= 1
X,9405,BTL,A - X,9405,MTX,V + 60 p,9405,BTL,A >= 8
X,9405,BTL,A - X,9405,MTX,V + 60 p,9405,BTL,A <= 8
X,9405,BTL,V - X,9405,BTL,A + 60 p,9405,BTL,V >= 1
X,9405,BTL,V - X,9405,BTL,A + 60 p,9405,BTL,V <= 1
X,9405,KYA,A - X,9405,BTL,V + 60 p,9405,KYA,A >= 32
X,9405,KYA,A - X,9405,BTL,V + 60 p,9405,KYA,A <= 32
X,9406,KYA,V - X,9406,KYA,A + 60 p,9406,KYA,V >= 10
X,9406,KYA,V - X,9406,KYA,A + 60 p,9406,KYA,V <= 10
X,9406,BTL,A - X,9406,KYA,V + 60 p,9406,BTL,A >= 31
X,9406,BTL,A - X,9406,KYA,V + 60 p,9406,BTL,A <= 31
X,9406,BTL,V - X,9406,BTL,A + 60 p,9406,BTL,V >= 1
X,9406,BTL,V - X,9406,BTL,A + 60 p,9406,BTL,V <= 1
X,9406,MTX,A - X,9406,BTL,V + 60 p,9406,MTX,A >= 8
X,9406,MTX,A - X,9406,BTL,V + 60 p,9406,MTX,A <= 8
X,9406,MTX,V - X,9406,MTX,A + 60 p,9406,MTX,V >= 1
X,9406,MTX,V - X,9406,MTX,A + 60 p,9406,MTX,V <= 1
X,9406,CWN,A - X,9406,MTX,V + 60 p,9406,CWN,A >= 14
X,9406,CWN,A - X,9406,MTX,V + 60 p,9406,CWN,A <= 14
X,9907,CWN,V - X,9406,CWN,A + 60 p,9907,CWN,V >= 13
X,9907,CWN,V - X,9406,CWN,A + 60 p,9907,CWN,V <= 13
X,9907,MTX,A - X,9907,CWN,V + 60 p,9907,MTX,A >= 15
X,9907,MTX,A - X,9907,CWN,V + 60 p,9907,MTX,A <= 15
X,9907,MTX,V - X,9907,MTX,A + 60 p,9907,MTX,V >= 1
X,9907,MTX,V - X,9907,MTX,A + 60 p,9907,MTX,V <= 1
X,9907,BTL,A - X,9907,MTX,V + 60 p,9907,BTL,A >= 8
X,9907,BTL,A - X,9907,MTX,V + 60 p,9907,BTL,A <= 8
X,9907,BTL,V - X,9907,BTL,A + 60 p,9907,BTL,V >= 1
X,9907,BTL,V - X,9907,BTL,A + 60 p,9907,BTL,V <= 1
X,9907,CHN,A - X,9907,BTL,V + 60 p,9907,CHN,A >= 42
X,9907,CHN,A - X,9907,BTL,V + 60 p,9907,CHN,A <= 42
X,9908,CHN,V - X,9907,CHN,A + 60 p,9908,CHN,V >= 20
X,9908,CHN,V - X,9907,CHN,A + 60 p,9908,CHN,V <= 20
X,9908,BTL,A - X,9908,CHN,V + 60 p,9908,BTL,A >= 41
X,9908,BTL,A - X,9908,CHN,V + 60 p,9908,BTL,A <= 41
X,9908,BTL,V - X,9908,BTL,A + 60 p,9908,BTL,V >= 1
X,9908,BTL,V - X,9908,BTL,A + 60 p,9908,BTL,V <= 1
X,9908,MTX,A - X,9908,BTL,V + 60 p,9908,MTX,A >= 8
X,9908,MTX,A - X,9908,BTL,V + 60 p,9908,MTX,A <= 8
X,9908,MTX,V - X,9908,MTX,A + 60 p,9908,MTX,V >= 1
X,9908,MTX,V - X,9908,MTX,A + 60 p,9908,MTX,V <= 1
X,9908,CWN,A - X,9908,MTX,V + 60 p,9908,CWN,A >= 14
X,9908,CWN,A - X,9908,MTX,V + 60 p,9908,CWN,A <= 14
X,9405,CWN,V - X,9903,CWN,V + 60 p,9405,CWN,V >= 15
X,9405,CWN,V - X,9903,CWN,V + 60 p,9405,CWN,V <= 15
X,9907,CWN,V - X,9405,CWN,V + 60 p,9907,CWN,V >= 15
X,9907,CWN,V - X,9405,CWN,V + 60 p,9907,CWN,V <= 15

bounds
0 <= X,0501,SRX,A <=59
0 <=  X,0501,CWN,V <= 59
0 <= X,0501,SRX,V <=59
0 <=  X,0501,SRX,A <= 59
0 <= X,0501,MLD,A <=59
0 <=  X,0501,SRX,V <= 59
0 <= X,0501,MLD,V <=59
0 <=  X,0501,MLD,A <= 59
0 <= X,0501,PND,A <=59
0 <=  X,0501,MLD,V <= 59
0 <= X,0501,PND,V <=59
0 <=  X,0501,PND,A <= 59
0 <= X,0501,HEH,A <=59
0 <=  X,0501,PND,V <= 59
0 <= X,0502,HEH,V <=59
0 <=  X,0501,HEH,A <= 59
0 <= X,0502,PND,A <=59
0 <=  X,0502,HEH,V <= 59
0 <= X,0502,PND,V <=59
0 <=  X,0502,PND,A <= 59
0 <= X,0502,MLD,A <=59
0 <=  X,0502,PND,V <= 59
0 <= X,0502,MLD,V <=59
0 <=  X,0502,MLD,A <= 59
0 <= X,0502,SRX,A <=59
0 <=  X,0502,MLD,V <= 59
0 <= X,0502,SRX,V <=59
0 <=  X,0502,SRX,A <= 59
0 <= X,0502,CWN,A <=59
0 <=  X,0502,SRX,V <= 59
0 <= X,0503,CWN,V <=59
0 <=  X,0501,CWN,V <= 59
0 <= X,0503,SRX,A <=59
0 <=  X,0503,CWN,V <= 59
0 <= X,0503,SRX,V <=59
0 <=  X,0503,SRX,A <= 59
0 <= X,0503,MLD,A <=59
0 <=  X,0503,SRX,V <= 59
0 <= X,0503,MLD,V <=59
0 <=  X,0503,MLD,A <= 59
0 <= X,0503,PND,A <=59
0 <=  X,0503,MLD,V <= 59
0 <= X,0503,PND,V <=59
0 <=  X,0503,PND,A <= 59
0 <= X,0503,HEH,A <=59
0 <=  X,0503,PND,V <= 59
0 <= X,0504,HEH,V <=59
0 <=  X,0503,HEH,A <= 59
0 <= X,0504,PND,A <=59
0 <=  X,0504,HEH,V <= 59
0 <= X,0504,PND,V <=59
0 <=  X,0504,PND,A <= 59
0 <= X,0504,MLD,A <=59
0 <=  X,0504,PND,V <= 59
0 <= X,0504,MLD,V <=59
0 <=  X,0504,MLD,A <= 59
0 <= X,0504,SRX,A <=59
0 <=  X,0504,MLD,V <= 59
0 <= X,0504,SRX,V <=59
0 <=  X,0504,SRX,A <= 59
0 <= X,0504,CWN,A <=59
0 <=  X,0504,SRX,V <= 59
0 <= X,0505,CWN,V <=59
0 <=  X,0503,CWN,V <= 59
0 <= X,0505,SRX,A <=59
0 <=  X,0505,CWN,V <= 59
0 <= X,0505,SRX,V <=59
0 <=  X,0505,SRX,A <= 59
0 <= X,0505,MLD,A <=59
0 <=  X,0505,SRX,V <= 59
0 <= X,0505,MLD,V <=59
0 <=  X,0505,MLD,A <= 59
0 <= X,0505,PND,A <=59
0 <=  X,0505,MLD,V <= 59
0 <= X,0505,PND,V <=59
0 <=  X,0505,PND,A <= 59
0 <= X,0505,HEH,A <=59
0 <=  X,0505,PND,V <= 59
0 <= X,0506,HEH,V <=59
0 <=  X,0505,HEH,A <= 59
0 <= X,0506,PND,A <=59
0 <=  X,0506,HEH,V <= 59
0 <= X,0506,PND,V <=59
0 <=  X,0506,PND,A <= 59
0 <= X,0506,MLD,A <=59
0 <=  X,0506,PND,V <= 59
0 <= X,0506,MLD,V <=59
0 <=  X,0506,MLD,A <= 59
0 <= X,0506,SRX,A <=59
0 <=  X,0506,MLD,V <= 59
0 <= X,0506,SRX,V <=59
0 <=  X,0506,SRX,A <= 59
0 <= X,0506,CWN,A <=59
0 <=  X,0506,SRX,V <= 59
0 <= X,9401,MTX,A <=59
0 <=  X,9401,CWN,V <= 59
0 <= X,9401,MTX,V <=59
0 <=  X,9401,MTX,A <= 59
0 <= X,9401,BTL,A <=59
0 <=  X,9401,MTX,V <= 59
0 <= X,9401,BTL,V <=59
0 <=  X,9401,BTL,A <= 59
0 <= X,9401,KYA,A <=59
0 <=  X,9401,BTL,V <= 59
0 <= X,9402,KYA,V <=59
0 <=  X,9401,KYA,A <= 59
0 <= X,9402,BTL,A <=59
0 <=  X,9402,KYA,V <= 59
0 <= X,9402,BTL,V <=59
0 <=  X,9402,BTL,A <= 59
0 <= X,9402,MTX,A <=59
0 <=  X,9402,BTL,V <= 59
0 <= X,9402,MTX,V <=59
0 <=  X,9402,MTX,A <= 59
0 <= X,9402,CWN,A <=59
0 <=  X,9402,MTX,V <= 59
0 <= X,9903,CWN,V <=59
0 <=  X,9402,CWN,A <= 59
0 <= X,9903,MTX,A <=59
0 <=  X,9903,CWN,V <= 59
0 <= X,9903,MTX,V <=59
0 <=  X,9903,MTX,A <= 59
0 <= X,9903,BTL,A <=59
0 <=  X,9903,MTX,V <= 59
0 <= X,9903,BTL,V <=59
0 <=  X,9903,BTL,A <= 59
0 <= X,9903,CHN,A <=59
0 <=  X,9903,BTL,V <= 59
0 <= X,9904,CHN,V <=59
0 <=  X,9903,CHN,A <= 59
0 <= X,9904,BTL,A <=59
0 <=  X,9904,CHN,V <= 59
0 <= X,9904,BTL,V <=59
0 <=  X,9904,BTL,A <= 59
0 <= X,9904,MTX,A <=59
0 <=  X,9904,BTL,V <= 59
0 <= X,9904,MTX,V <=59
0 <=  X,9904,MTX,A <= 59
0 <= X,9904,CWN,A <=59
0 <=  X,9904,MTX,V <= 59
0 <= X,9903,CWN,V <=59
0 <=  X,9401,CWN,V <= 59
0 <= X,9405,MTX,A <=59
0 <=  X,9405,CWN,V <= 59
0 <= X,9405,MTX,V <=59
0 <=  X,9405,MTX,A <= 59
0 <= X,9405,BTL,A <=59
0 <=  X,9405,MTX,V <= 59
0 <= X,9405,BTL,V <=59
0 <=  X,9405,BTL,A <= 59
0 <= X,9405,KYA,A <=59
0 <=  X,9405,BTL,V <= 59
0 <= X,9406,KYA,V <=59
0 <=  X,9406,KYA,A <= 59
0 <= X,9406,BTL,A <=59
0 <=  X,9406,KYA,V <= 59
0 <= X,9406,BTL,V <=59
0 <=  X,9406,BTL,A <= 59
0 <= X,9406,MTX,A <=59
0 <=  X,9406,BTL,V <= 59
0 <= X,9406,MTX,V <=59
0 <=  X,9406,MTX,A <= 59
0 <= X,9406,CWN,A <=59
0 <=  X,9406,MTX,V <= 59
0 <= X,9907,CWN,V <=59
0 <=  X,9406,CWN,A <= 59
0 <= X,9907,MTX,A <=59
0 <=  X,9907,CWN,V <= 59
0 <= X,9907,MTX,V <=59
0 <=  X,9907,MTX,A <= 59
0 <= X,9907,BTL,A <=59
0 <=  X,9907,MTX,V <= 59
0 <= X,9907,BTL,V <=59
0 <=  X,9907,BTL,A <= 59
0 <= X,9907,CHN,A <=59
0 <=  X,9907,BTL,V <= 59
0 <= X,9908,CHN,V <=59
0 <=  X,9907,CHN,A <= 59
0 <= X,9908,BTL,A <=59
0 <=  X,9908,CHN,V <= 59
0 <= X,9908,BTL,V <=59
0 <=  X,9908,BTL,A <= 59
0 <= X,9908,MTX,A <=59
0 <=  X,9908,BTL,V <= 59
0 <= X,9908,MTX,V <=59
0 <=  X,9908,MTX,A <= 59
0 <= X,9908,CWN,A <=59
0 <=  X,9908,MTX,V <= 59
0 <= X,9405,CWN,V <=59
0 <=  X,9903,CWN,V <= 59
0 <= X,9907,CWN,V <=59
0 <=  X,9405,CWN,V <= 59

binaries
p,0501,SRX,A
p,0501,SRX,V
p,0501,MLD,A
p,0501,MLD,V
p,0501,PND,A
p,0501,PND,V
p,0501,HEH,A
p,0502,HEH,V
p,0502,PND,A
p,0502,PND,V
p,0502,MLD,A
p,0502,MLD,V
p,0502,SRX,A
p,0502,SRX,V
p,0502,CWN,A
p,0503,CWN,V
p,0503,SRX,A
p,0503,SRX,V
p,0503,MLD,A
p,0503,MLD,V
p,0503,PND,A
p,0503,PND,V
p,0503,HEH,A
p,0504,HEH,V
p,0504,PND,A
p,0504,PND,V
p,0504,MLD,A
p,0504,MLD,V
p,0504,SRX,A
p,0504,SRX,V
p,0504,CWN,A
p,0505,CWN,V
p,0505,SRX,A
p,0505,SRX,V
p,0505,MLD,A
p,0505,MLD,V
p,0505,PND,A
p,0505,PND,V
p,0505,HEH,A
p,0506,HEH,V
p,0506,PND,A
p,0506,PND,V
p,0506,MLD,A
p,0506,MLD,V
p,0506,SRX,A
p,0506,SRX,V
p,0506,CWN,A
p,9401,MTX,A
p,9401,MTX,V
p,9401,BTL,A
p,9401,BTL,V
p,9401,KYA,A
p,9402,KYA,V
p,9402,BTL,A
p,9402,BTL,V
p,9402,MTX,A
p,9402,MTX,V
p,9402,CWN,A
p,9903,CWN,V
p,9903,MTX,A
p,9903,MTX,V
p,9903,BTL,A
p,9903,BTL,V
p,9903,CHN,A
p,9904,CHN,V
p,9904,BTL,A
p,9904,BTL,V
p,9904,MTX,A
p,9904,MTX,V
p,9904,CWN,A
p,9903,CWN,V
p,9405,MTX,A
p,9405,MTX,V
p,9405,BTL,A
p,9405,BTL,V
p,9405,KYA,A
p,9406,KYA,V
p,9406,BTL,A
p,9406,BTL,V
p,9406,MTX,A
p,9406,MTX,V
p,9406,CWN,A
p,9907,CWN,V
p,9907,MTX,A
p,9907,MTX,V
p,9907,BTL,A
p,9907,BTL,V
p,9907,CHN,A
p,9908,CHN,V
p,9908,BTL,A
p,9908,BTL,V
p,9908,MTX,A
p,9908,MTX,V
p,9908,CWN,A
p,9405,CWN,V
p,9907,CWN,V

END

